10	5
0	5	1	5	2	8	3
1	1	9
2	0
3	2	9	6
4	1	6
5	1	8
6	1	10
7	2	9	4
8	1	7
9	1	11
10	1	11
11	0
0	0	0	0	0	0	0
1	10	3	3	0	5	2
2	4	0	2	2	0	2
3	8	2	0	0	1	1
4	2	5	4	2	3	4
5	10	0	0	0	5	5
6	7	4	2	3	0	0
7	5	2	0	4	3	4
8	9	1	0	2	5	4
9	4	1	4	3	1	3
10	9	2	2	3	4	4
11	0	0	0	0	0	0
6	5	4	11	10
